9851
0 1 1 1 0 1 0 1 0 1 0 0 1 1 0 1 0 0 1 1 
5 5 5 5 5 5 5 5 19 19 19 7 7 7 7 7 7 12 13 13 12 13 12 13 12 9 9 9 9 9 15 9 9 15 18 18 18 18 18 18 18 18 18 18 5 5 7 12 12 15 15 3 7 18 5 15 3 3 1 7 18 2 15 13 3 13 2 18 7 5 9 18 7 3 3 15 3 7 7 2 18 19 13 15 15 3 1 5 15 3 15 2 9 2 15 18 1 7 1 5 
